(set-logic QF_S)
(declare-fun var0 () String)
(assert (str.in.re var0 (re.++ (re.* (re.* (str.to.re "0"))) (re.++ (re.union (re.union (str.to.re "1") (str.to.re "222")) (re.union (str.to.re "3") (str.to.re "444"))) (re.++ (re.union (re.union (str.to.re "555") (str.to.re "666")) (re.union (str.to.re "777") (str.to.re "888"))) (re.++ (re.+ (re.union (str.to.re "9") (str.to.re "a"))) (re.++ (re.union (re.union (str.to.re "bb") (str.to.re "c")) (re.union (str.to.re "ddd") (str.to.re "eee"))) (re.++ (re.union (re.+ (str.to.re "fff")) (re.+ (str.to.re "gg"))) (re.++ (re.* (re.* (str.to.re "h"))) (re.++ (re.+ (re.union (str.to.re "i") (str.to.re "j"))) (re.++ (re.union (re.+ (str.to.re "kk")) (re.+ (str.to.re "ll"))) (re.++ (re.+ (re.+ (str.to.re "mm"))) (re.++ (re.union (re.* (str.to.re "nnn")) (re.* (str.to.re "ooo"))) (re.++ (re.union (re.+ (str.to.re "ppp")) (re.+ (str.to.re "qq"))) (re.++ (re.union (re.union (str.to.re "r") (str.to.re "s")) (re.union (str.to.re "tt") (str.to.re "uuu"))) (re.++ (re.union (re.union (str.to.re "vv") (str.to.re "w")) (re.union (str.to.re "xx") (str.to.re "yy"))) (re.++ (re.+ (re.* (str.to.re "zzz"))) (re.++ (re.* (re.* (str.to.re "AA"))) (re.++ (re.+ (re.union (str.to.re "B") (str.to.re "CC"))) (re.++ (re.union (re.+ (str.to.re "DDD")) (re.+ (str.to.re "E"))) (re.++ (re.+ (re.* (str.to.re "FFF"))) (re.++ (re.union (re.* (str.to.re "G")) (re.* (str.to.re "HHH"))) (re.++ (re.+ (re.+ (str.to.re "III"))) (re.++ (re.+ (re.* (str.to.re "JJJ"))) (re.++ (re.+ (re.union (str.to.re "KK") (str.to.re "LL"))) (re.++ (re.+ (re.* (str.to.re "MM"))) (re.++ (re.+ (re.+ (str.to.re "NNN"))) (re.++ (re.* (re.+ (str.to.re "O"))) (re.++ (re.+ (re.union (str.to.re "PP") (str.to.re "QQ"))) (re.++ (re.+ (re.union (str.to.re "RRR") (str.to.re "S"))) (re.++ (re.* (re.union (str.to.re "T") (str.to.re "UU"))) (re.++ (re.union (re.* (str.to.re "VVV")) (re.* (str.to.re "WW"))) (re.++ (re.union (re.+ (str.to.re "XX")) (re.+ (str.to.re "Y"))) (re.++ (re.union (re.+ (str.to.re "ZZZ")) (re.+ (str.to.re "!"))) (re.++ (re.* (re.* (str.to.re """"""))) (re.++ (re.* (re.union (str.to.re "##") (str.to.re "$"))) (re.++ (re.* (re.union (str.to.re "%%") (str.to.re "&&&"))) (re.++ (re.union (re.+ (str.to.re "''")) (re.+ (str.to.re "("))) (re.++ (re.union (re.union (str.to.re ")") (str.to.re "*")) (re.union (str.to.re "+++") (str.to.re ",,,"))) (re.++ (re.union (re.union (str.to.re "-") (str.to.re "..")) (re.union (str.to.re "/") (str.to.re ":"))) (re.++ (re.+ (re.* (str.to.re ";"))) (re.++ (re.+ (re.+ (str.to.re "<<"))) (re.++ (re.* (re.* (str.to.re "=="))) (re.++ (re.* (re.union (str.to.re ">>") (str.to.re "?"))) (re.++ (re.union (re.+ (str.to.re "@")) (re.+ (str.to.re "["))) (re.++ (re.+ (re.+ (str.to.re "\\"))) (re.++ (re.* (re.* (str.to.re "]]"))) (re.++ (re.union (re.* (str.to.re "^^")) (re.* (str.to.re "___"))) (re.++ (re.+ (re.union (str.to.re "``") (str.to.re "{"))) (re.++ (re.union (re.+ (str.to.re "|")) (re.+ (str.to.re "}"))) (re.++ (re.+ (re.+ (str.to.re "~~"))) (re.+ (re.union (str.to.re "0") (str.to.re "1"))))))))))))))))))))))))))))))))))))))))))))))))))))))
(check-sat)